NAME : local_7
TYPE : ATSP
DIMENSION : 32
EDGE_WEIGHT_TYPE : EXPLICIT
EDGE_WEIGHT_FORMAT : FULL_MATRIX
EDGE_WEIGHT_SECTION
0 10000000 10000000 10000000 10000000 10000000 802 10000000 914 563 622 10000000 345 1115 10000000 926 10000000 10000000 808 400 10000000 871 650 787 10000000 935 10000000 10000000 10000000 10000000 878 10000000 
0 0 10000000 10000000 216 892 10000000 777 10000000 10000000 10000000 885 10000000 10000000 10000000 10000000 10000000 10000000 10000000 10000000 10000000 10000000 10000000 10000000 541 10000000 10000000 10000000 10000000 848 10000000 881 
0 10000000 0 10000000 10000000 10000000 754 10000000 498 840 10000000 10000000 10000000 10000000 10000000 10000000 10000000 10000000 10000000 10000000 341 10000000 10000000 10000000 10000000 10000000 596 10000000 10000000 1066 897 813 
0 10000000 10000000 0 1034 278 671 10000000 10000000 890 547 10000000 825 10000000 10000000 10000000 10000000 10000000 10000000 10000000 10000000 312 10000000 354 10000000 10000000 766 10000000 10000000 10000000 10000000 10000000 
0 216 10000000 1024 0 808 10000000 562 10000000 10000000 10000000 669 10000000 929 10000000 10000000 10000000 10000000 10000000 10000000 10000000 10000000 10000000 10000000 330 10000000 10000000 10000000 10000000 728 10000000 788 
0 892 10000000 278 808 0 819 917 10000000 990 594 903 859 906 10000000 10000000 10000000 10000000 10000000 10000000 10000000 346 10000000 464 883 10000000 1007 10000000 10000000 10000000 10000000 10000000 
0 10000000 754 671 10000000 819 0 10000000 518 303 607 10000000 680 10000000 10000000 10000000 10000000 10000000 10000000 10000000 587 640 10000000 524 10000000 10000000 437 10000000 10000000 10000000 910 10000000 
0 777 10000000 10000000 562 917 10000000 0 10000000 10000000 10000000 137 10000000 454 566 662 10000000 787 10000000 10000000 10000000 1049 10000000 10000000 245 876 10000000 514 10000000 645 10000000 776 
0 10000000 498 10000000 10000000 10000000 518 10000000 0 422 10000000 10000000 960 10000000 10000000 10000000 797 10000000 875 10000000 604 10000000 10000000 985 10000000 10000000 692 10000000 10000000 10000000 480 1005 
0 10000000 840 890 10000000 990 303 10000000 422 0 624 10000000 560 10000000 10000000 10000000 983 10000000 879 788 784 757 10000000 641 10000000 10000000 709 10000000 10000000 10000000 669 10000000 
0 10000000 10000000 547 10000000 594 607 10000000 10000000 624 0 1011 286 839 10000000 906 10000000 10000000 10000000 10000000 10000000 258 792 206 10000000 981 967 10000000 10000000 10000000 10000000 10000000 
0 885 10000000 10000000 669 903 10000000 137 10000000 10000000 1001 0 1114 317 570 525 10000000 714 10000000 10000000 10000000 1014 10000000 10000000 373 740 10000000 478 930 763 10000000 893 
0 10000000 10000000 825 10000000 859 680 10000000 960 560 286 1097 0 853 10000000 876 10000000 10000000 10000000 745 10000000 540 612 474 10000000 857 10000000 10000000 10000000 10000000 10000000 10000000 
0 10000000 10000000 10000000 929 906 10000000 454 10000000 10000000 839 317 872 0 719 234 10000000 673 10000000 10000000 10000000 873 900 988 673 448 10000000 571 844 10000000 10000000 10000000 
0 10000000 10000000 10000000 10000000 10000000 10000000 566 10000000 10000000 10000000 570 10000000 719 0 775 996 445 10000000 10000000 10000000 10000000 10000000 10000000 727 918 10000000 189 652 633 944 758 
0 10000000 10000000 10000000 10000000 10000000 10000000 662 10000000 10000000 906 525 906 234 775 0 10000000 591 10000000 10000000 10000000 993 757 10000000 895 216 10000000 607 709 10000000 10000000 10000000 
0 10000000 10000000 10000000 10000000 10000000 10000000 10000000 797 983 10000000 10000000 10000000 10000000 996 10000000 0 10000000 449 910 10000000 10000000 10000000 10000000 10000000 10000000 10000000 10000000 10000000 10000000 327 10000000 
0 10000000 10000000 10000000 10000000 10000000 10000000 787 10000000 10000000 10000000 714 10000000 673 445 591 10000000 0 10000000 10000000 10000000 10000000 10000000 10000000 10000000 641 10000000 316 228 10000000 10000000 10000000 
0 10000000 10000000 10000000 10000000 10000000 10000000 10000000 875 879 10000000 10000000 10000000 10000000 10000000 10000000 449 10000000 0 528 10000000 10000000 10000000 10000000 10000000 10000000 10000000 10000000 10000000 10000000 478 10000000 
0 10000000 10000000 10000000 10000000 10000000 10000000 10000000 10000000 788 10000000 10000000 745 10000000 10000000 10000000 910 10000000 528 0 10000000 10000000 883 10000000 10000000 10000000 10000000 10000000 10000000 10000000 809 10000000 
0 10000000 341 10000000 10000000 10000000 587 10000000 604 784 10000000 10000000 10000000 10000000 10000000 10000000 10000000 10000000 10000000 10000000 0 10000000 10000000 10000000 10000000 10000000 275 10000000 10000000 10000000 10000000 10000000 
0 10000000 10000000 312 10000000 346 640 1085 10000000 757 258 1036 540 873 10000000 993 10000000 10000000 10000000 10000000 10000000 0 993 146 10000000 10000000 899 10000000 10000000 10000000 10000000 10000000 
0 10000000 10000000 10000000 10000000 10000000 10000000 10000000 10000000 10000000 792 10000000 612 900 10000000 757 10000000 10000000 10000000 883 10000000 993 0 996 10000000 634 10000000 10000000 10000000 10000000 10000000 10000000 
0 10000000 10000000 354 10000000 464 524 10000000 985 641 206 10000000 474 966 10000000 10000000 10000000 10000000 10000000 10000000 10000000 146 996 0 10000000 10000000 815 10000000 10000000 10000000 10000000 10000000 
0 541 10000000 10000000 330 883 10000000 245 10000000 10000000 10000000 373 10000000 673 727 895 10000000 10000000 10000000 10000000 10000000 10000000 10000000 10000000 0 10000000 10000000 721 10000000 562 10000000 675 
0 10000000 10000000 10000000 10000000 10000000 10000000 876 10000000 10000000 981 740 857 448 918 216 10000000 641 10000000 10000000 10000000 10000000 634 10000000 10000000 0 10000000 748 689 10000000 10000000 10000000 
0 10000000 596 766 10000000 1015 437 10000000 692 709 967 10000000 10000000 10000000 10000000 10000000 10000000 10000000 10000000 10000000 275 899 10000000 815 10000000 10000000 0 10000000 10000000 10000000 10000000 10000000 
0 10000000 10000000 10000000 10000000 10000000 10000000 514 10000000 10000000 10000000 478 10000000 571 189 607 10000000 316 10000000 10000000 10000000 10000000 10000000 10000000 721 748 10000000 0 543 762 10000000 900 
0 10000000 10000000 10000000 10000000 10000000 10000000 10000000 10000000 10000000 10000000 930 10000000 844 652 709 10000000 228 10000000 10000000 10000000 10000000 10000000 10000000 10000000 689 10000000 543 0 10000000 10000000 10000000 
0 848 1066 10000000 728 10000000 10000000 645 10000000 10000000 10000000 763 10000000 10000000 633 10000000 10000000 10000000 10000000 10000000 10000000 10000000 10000000 10000000 562 10000000 10000000 762 10000000 0 10000000 186 
0 10000000 897 10000000 10000000 10000000 910 10000000 480 669 10000000 10000000 10000000 10000000 961 10000000 327 10000000 478 809 10000000 10000000 10000000 10000000 10000000 10000000 10000000 10000000 10000000 10000000 0 10000000 
0 10000000 10000000 10000000 10000000 10000000 10000000 10000000 10000000 10000000 10000000 10000000 10000000 10000000 10000000 10000000 10000000 10000000 10000000 10000000 10000000 10000000 10000000 10000000 10000000 10000000 10000000 10000000 10000000 10000000 10000000 0 
EOF